17	4	3
45	32	46	34	47	23	33	
0	0	0	0	0	10	7	2	6	6	8	3	2	3	4
4	4	8	7	10	7	2	2	4	8	1	3	6	7	9
9	8	3	8	10	9	6	6	2	4	7	3	8	10	13
5	2	9	1	8	8	8	9	4	3	6	2	5	6
9	3	3	9	3	9	4	6	4	4	4	3	7	9	17
175	8	8	5	7	8	4	1	9	9	7	1	17
200	4	8	9	1	7	6	8	9	9	6	2	14	17
250	4	1	10	10	9	8	1	4	10	5	1	17
200	5	7	4	10	1	7	2	10	1	5	2	11	12
225	8	4	8	6	6	10	8	1	3	1	2	11	12
50	7	3	4	5	5	1	4	6	10	3	2	16	17
200	6	4	8	2	2	6	8	10	4	7	1	17
6	3	6	2	6	5	3	5	6	7	4	1	17
6	10	9	8	2	1	8	10	2	7	10	2	15	16
1	8	9	5	10	6	3	9	4	3	2	1	17
1	9	3	5	2	4	8	3	8	3	2	2	17	17
0	0	0	0	0	10	5	8	7	4	1	0
